200
Ethanol
2.8

9 1
O  OH 0.3120 0.7113 -0.68300 -0.92205 -1.16110 0
C  CT 0.3500 0.2761  0.14500  0.19575  0.24650 0
C  CT 0.3500 0.2761 -0.18000 -0.24300 -0.30600 0
H  HO 0.2673 0.0418  0.41800  0.56430  0.71060 0
H  HC 0.2500 0.1255  0.06000  0.08100  0.10200 0
H  HC 0.2500 0.1255  0.06000  0.08100  0.10200 0
H  HC 0.2500 0.1255  0.06000  0.08100  0.10200 0
H  HC 0.2500 0.1255  0.06000  0.08100  0.10200 0
H  HC 0.2500 0.1255  0.06000  0.08100  0.10200 0

9 1
O  OH 0.3120 0.7113 -0.68300 -0.92205 -1.16110
C  CT 0.3500 0.2761  0.14500  0.19575  0.24650
C  CT 0.3500 0.2761 -0.18000 -0.24300 -0.30600
H  HO 0.2673 0.0418  0.41800  0.56430  0.71060
H  HC 0.2500 0.1255  0.06000  0.08100  0.10200
H  HC 0.2500 0.1255  0.06000  0.08100  0.10200
H  HC 0.2500 0.1255  0.06000  0.08100  0.10200
H  HC 0.2500 0.1255  0.06000  0.08100  0.10200
H  HC 0.2500 0.1255  0.06000  0.08100  0.10200
2567
