1
TIP4P2005
1.5

4 1
O  OW 3.1589 0.7749 -1.00000 -1.40000 -1.80000 0
H  HW 0.2673 0.0418  0.50000  0.70000  0.90000 0
H  HW 0.2673 0.0418  0.50000  0.70000  0.90000 0
Bq MW 0.0000 0.0000  0.00000  0.00000  0.00000 1
  2  2  3     
  0 
  0 
  0 

4 1
O  OW 3.1589 0.7749  0.00000  0.00000  0.00000
H  HW 0.2673 0.0418  0.50000  0.70000  0.90000
H  HW 0.2673 0.0418  0.50000  0.70000  0.90000
Bq MW 0.0000 0.0000 -1.00000 -1.40000 -1.80000
  3  2  3  4   
  0
  0
  0
899

7
VDW MW    0.00000000         0.00000000    
VDW OW    1.77287261        0.185205545    
VDW HW   0.150017053         9.99043975E-03
HrmStr1 OW HW 200000.0 0.9572
HrmStr1 OW MW 200000.0 0.1546
HrmBnd1 HW OW HW 1000.0 104.52
HrmBnd1 HW OW MW 1000.0 52.26

