210
Phenol
2.5

13 7
C  CA 0.3550 0.2929  0.15000  0.20250  0.25500 0
C  CA 0.3550 0.2929 -0.11500 -0.15525 -0.19550 0
C  CA 0.3550 0.2929 -0.11500 -0.15525 -0.19550 0
C  CA 0.3550 0.2929 -0.11500 -0.15525 -0.19550 0
C  CA 0.3550 0.2929 -0.11500 -0.15525 -0.19550 0
C  CA 0.3550 0.2929 -0.11500 -0.15525 -0.19550 0
O  OH 0.3070 0.7113 -0.58500 -0.78975 -0.99450 0
H  HA 0.2420 0.1255  0.11500  0.15525  0.19550 0
H  HA 0.2420 0.1255  0.11500  0.15525  0.19550 0
H  HA 0.2420 0.1255  0.11500  0.15525  0.19550 0
H  HA 0.2420 0.1255  0.11500  0.15525  0.19550 0
H  HA 0.2420 0.1255  0.11500  0.15525  0.19550 0
H  HO 0.2673 0.0418  0.43500  0.58725  0.73950 0

13 7
C  CA 0.3550 0.2929  0.15000  0.20250  0.25500
C  CA 0.3550 0.2929 -0.11500 -0.15525 -0.19550
C  CA 0.3550 0.2929 -0.11500 -0.15525 -0.19550
C  CA 0.3550 0.2929 -0.11500 -0.15525 -0.19550
C  CA 0.3550 0.2929 -0.11500 -0.15525 -0.19550
C  CA 0.3550 0.2929 -0.11500 -0.15525 -0.19550
O  OH 0.3070 0.7113 -0.58500 -0.78975 -0.99450
H  HA 0.2420 0.1255  0.11500  0.15525  0.19550
H  HA 0.2420 0.1255  0.11500  0.15525  0.19550
H  HA 0.2420 0.1255  0.11500  0.15525  0.19550
H  HA 0.2420 0.1255  0.11500  0.15525  0.19550
H  HA 0.2420 0.1255  0.11500  0.15525  0.19550
H  HO 0.2673 0.0418  0.43500  0.58725  0.73950
467
