200
Ethanol
2.8

9 1
O  OH 0.2853 0.7733 -0.64600 -0.87210 -1.09820 0
C  CB 0.3990 0.3920  0.24000  0.32400  0.40800 0
C  CA 0.3790 0.8330  0.00000  0.00000  0.00000 0
H  HO 0.2673 0.0418  0.40600  0.54810  0.69020 0
H  HC 0.0000 0.0000  0.00000  0.00000  0.00000 0
H  HC 0.0000 0.0000  0.00000  0.00000  0.00000 0
H  HC 0.0000 0.0000  0.00000  0.00000  0.00000 0
H  HC 0.0000 0.0000  0.00000  0.00000  0.00000 0
H  HC 0.0000 0.0000  0.00000  0.00000  0.00000 0

4 1
O  OH 0.2853 0.7733 -0.64600 -0.87210 -1.09820
C  CB 0.3990 0.3920  0.24000  0.32400  0.40800
C  CA 0.3790 0.8330  0.00000  0.00000  0.00000
H  HO 0.2673 0.0418  0.40600  0.54810  0.69020
2567
